SPARKNaCl/why3-z3/sparknacl-sign.adb_282_22_postcondition3_1.smt2
;; produced by z3_gnatprove.drv ;;
(set-info :smt-lib-version 2.5)
(set-info :source |VC generated by SPARK 2014|)
(set-info :category industrial)
(set-info :status unknown)
;;; generated by SMT-LIB2 driver
;;; SMT-LIB2 driver: bit-vectors, common part
;;; SMT-LIB2: integer arithmetic
(declare-datatypes ()
  ((int__ref (int__refqtmk (int__content Int)))))

(declare-sort i64 0)

;; "i64'int"
(declare-fun i64qtint (i64) Int)

;; "i64'axiom"
(assert
  (forall ((i i64))
    (and
      (<= (- 9223372036854775808) (i64qtint i))
      (<= (i64qtint i) 9223372036854775807))))

;; "in_range"
(define-fun in_range ((x Int)) Bool
  (and (<= (- 9223372036854775808) x) (<= x 9223372036854775807)))

;; "to_rep"
(define-fun to_rep ((x i64)) Int
  (i64qtint x))

;; "of_rep"
(declare-fun of_rep (Int) i64)

;; "inversion_axiom"
(assert
  (forall ((x i64)) (! (= (of_rep (to_rep x)) x) :pattern ((to_rep x)) )))

;; "range_axiom"
(assert (forall ((x i64)) (! (in_range (to_rep x)) :pattern ((to_rep x)) )))

;; "coerce_axiom"
(assert
  (forall ((x Int))
    (! (=> (in_range x) (= (to_rep (of_rep x)) x)) :pattern ((to_rep
                                                               (of_rep x))) )))

(declare-sort map1 0)

;; "has_bounds"
(declare-fun has_bounds (map1
  Int
  Int) Bool)

;; "get"
(declare-fun get (map1
  Int) i64)

(declare-const x map1)

(declare-sort xl_limb 0)

;; "xl_limb'int"
(declare-fun xl_limbqtint (xl_limb) Int)

;; "xl_limb'axiom"
(assert
  (forall ((i xl_limb))
    (and
      (<= (- 33299444949360) (xl_limbqtint i))
      (<= (xl_limbqtint i) 33299444949360))))

;; "in_range"
(define-fun in_range1 ((x1 Int)) Bool
  (and (<= (- 33299444949360) x1) (<= x1 33299444949360)))

;; "to_rep"
(define-fun to_rep1 ((x1 xl_limb)) Int
  (xl_limbqtint x1))

;; "of_rep"
(declare-fun of_rep1 (Int) xl_limb)

;; "inversion_axiom"
(assert
  (forall ((x1 xl_limb))
    (! (= (of_rep1 (to_rep1 x1)) x1) :pattern ((to_rep1 x1)) )))

;; "range_axiom"
(assert
  (forall ((x1 xl_limb))
    (! (in_range1 (to_rep1 x1)) :pattern ((to_rep1 x1)) )))

;; "coerce_axiom"
(assert
  (forall ((x1 Int))
    (! (=> (in_range1 x1) (= (to_rep1 (of_rep1 x1)) x1)) :pattern ((to_rep1
                                                                    (of_rep1
                                                                    x1))) )))

(declare-sort map2 0)

(declare-datatypes ()
  ((map__ref (map__refqtmk (map__content map2)))))

;; "has_bounds"
(declare-fun has_bounds1 (map2
  Int
  Int) Bool)

;; "get"
(declare-fun get1 (map2
  Int) xl_limb)

;; "set"
(declare-fun set (map2
  Int
  xl_limb) map2)

;; "set_eq"
(assert
  (forall ((a map2) (i Int) (v xl_limb))
    (! (= (get1 (set a i v) i) v) :pattern ((set a i v)) )))

;; "set_neq"
(assert
  (forall ((a map2) (i Int) (v xl_limb))
    (! (forall ((j Int))
         (! (=> (not (= i j)) (= (get1 (set a i v) j) (get1 a j))) :pattern (
         (get1
           a
           j)) :pattern ((get1 (set a i v) j)) )) :pattern ((set a i v)) )))

;; "set_has_bounds"
(assert
  (forall ((a map2) (i Int) (f Int) (l Int) (v xl_limb))
    (! (=>
         (and (<= f i) (<= i l))
         (=> (has_bounds1 a f l) (has_bounds1 (set a i v) f l))) :pattern (
    (has_bounds1
      (set a i v)
      f
      l)) )))

;; "temp_____aggregate_def_2288"
(declare-fun temp_____aggregate_def_2288 (Int) map2)

(declare-const rliteral xl_limb)

;; "rliteral_axiom"
(assert (= (xl_limbqtint rliteral) 0))

(declare-const xl map2)

;; "Assume"
(assert (has_bounds x 0 63))

;; "Assume"
(assert (has_bounds x 0 63))

;; "Assume"
(assert (has_bounds1 xl 0 63))

;; "Assume"
(assert
  (forall ((k Int))
    (=>
      (and (<= 0 k) (<= k 63))
      (let ((temp___2311 (to_rep (get x k))))
        (and (<= 0 temp___2311) (<= temp___2311 2081055))))))

(declare-const temp___2292 map2)

;; "H"
(assert (has_bounds1 temp___2292 0 63))

;; "H"
(assert
  (forall ((temp___2291 Int))
    (! (=>
         (and (<= 0 temp___2291) (<= temp___2291 63))
         (= (get1 temp___2292 temp___2291) rliteral)) :pattern ((get1
                                                                  temp___2292
                                                                  temp___2291)) )))

;; "H"
(assert (= temp___2292 (temp_____aggregate_def_2288 0)))

;; "temp_____aggregate_def_2288'result'unused"
(define-fun temp_____aggregate_def_2288qtresultqtunused () map2
  temp___2292)

(declare-const xl1 map2)

;; "xl'unused"
(define-fun xlqtunused () map__ref
  (map__refqtmk xl1))

;; "H"
(assert (= xl1 temp___2292))

(declare-const xl2 map2)

;; "xl'unused"
(define-fun xlqtunused1 () map__ref
  (map__refqtmk xl2))

(declare-const k Int)

(declare-const kqtunused int__ref)

;; "H"
(assert (= kqtunused (int__refqtmk k)))

;; "H"
(assert (= k 0))

(declare-const int__contentqtresultqtunused Int)

;; "H"
(assert (= int__contentqtresultqtunused k))

(declare-const o Bool)

;; "H"
(assert (= o (ite (<= k 63) true false)))

(declare-const infix_lseqqtresultqtunused Bool)

;; "H"
(assert (= infix_lseqqtresultqtunused o))

(declare-const int__contentqtresultqtunused1 Int)

;; "H"
(assert (= int__contentqtresultqtunused1 k))

(declare-const o1 Bool)

;; "H"
(assert (= o1 (ite (<= 0 k) true false)))

(declare-const infix_lseqqtresultqtunused1 Bool)

;; "H"
(assert (= infix_lseqqtresultqtunused1 o1))

(declare-const o2 Bool)

;; "H"
(assert (= o2 (and o1 o)))

(declare-const andbqtresultqtunused Bool)

;; "H"
(assert (= andbqtresultqtunused o2))

(declare-const temp___loop_entry_2298qtunused map2)

(declare-const map__contentqtresultqtunused map2)

(declare-const int__contentqtresultqtunused2 Int)

(declare-const o3 i64)

(declare-const getqtresultqtunused i64)

(declare-const o4 Int)

(declare-const to_repqtresultqtunused Int)

(declare-const range_check_qtresultqtunused Int)

(declare-const o5 xl_limb)

(declare-const of_repqtresultqtunused xl_limb)

(declare-const int__contentqtresultqtunused3 Int)

(declare-const map__contentqtresultqtunused1 map2)

(declare-const o6 map2)

(declare-const setqtresultqtunused map2)

(declare-const xl3 map2)

(declare-const xlqtunused2 map__ref)

(declare-const usfqtunused Bool)

(declare-const anyqtresultqtunused Bool)

(declare-const k1 Int)

(declare-const kqtunused1 int__ref)

(declare-const int__contentqtresultqtunused4 Int)

(declare-const infix_eqqtresultqtunused Bool)

(declare-const usf Int)

(declare-const anyqtresultqtunused1 Int)

(declare-const aqtunused Int)

(declare-const int__contentqtresultqtunused5 Int)

(declare-const o7 Bool)

(declare-const infix_lseqqtresultqtunused2 Bool)

(declare-const o8 Bool)

(declare-const infix_lseqqtresultqtunused3 Bool)

(declare-const andbqtresultqtunused1 Bool)

;; "H"
(assert
  (ite (= o2 true)
    (and
      (= temp___loop_entry_2298qtunused xl1)
      (and
        (= map__contentqtresultqtunused xl1)
        (and
          (= int__contentqtresultqtunused2 k)
          (and
            (= o3 (get x k))
            (and
              (= getqtresultqtunused o3)
              (and
                (= (to_rep o3) o4)
                (and
                  (= to_repqtresultqtunused o4)
                  (and
                    (in_range1 o4)
                    (and
                      (= range_check_qtresultqtunused o4)
                      (and
                        (= (to_rep1 o5) o4)
                        (and
                          (= of_repqtresultqtunused o5)
                          (and
                            (= int__contentqtresultqtunused3 k)
                            (and
                              (= map__contentqtresultqtunused1 xl1)
                              (and
                                (= o6 (set xl1 k o5))
                                (and
                                  (= setqtresultqtunused o6)
                                  (and
                                    (= xlqtunused2 (map__refqtmk xl3))
                                    (and
                                      (= xl3 o6)
                                      (and
                                        (and
                                          (= anyqtresultqtunused1 usf)
                                          (and
                                            (= aqtunused usf)
                                            (and
                                              (= int__contentqtresultqtunused5 
                                              k)
                                              (and
                                                (= o7 (ite (<= usf k)
                                                        true
                                                        false))
                                                (and
                                                  (= infix_lseqqtresultqtunused2 
                                                  o7)
                                                  (and
                                                    (= o8 (ite (<= 0 
                                                            usf)
                                                            true
                                                            false))
                                                    (and
                                                      (= infix_lseqqtresultqtunused3 
                                                      o8)
                                                      (= andbqtresultqtunused1 (and 
                                                      o8 o7)))))))))
                                        (and
                                          (= usfqtunused (ite (forall 
                                                                ((a Int))
                                                                (=>
                                                                  (and
                                                                    (<= 0 a)
                                                                    (<= a 
                                                                    k))
                                                                  (= 
                                                                  (to_rep1
                                                                    (get1
                                                                    xl3
                                                                    a)) 
                                                                  (to_rep
                                                                    (get x a)))))
                                                           true
                                                           false))
                                          (and
                                            (= anyqtresultqtunused (ite 
                                                                    (forall 
                                                                    ((a Int))
                                                                    (=>
                                                                    (and
                                                                    (<= 0 a)
                                                                    (<= a 
                                                                    k))
                                                                    (= 
                                                                    (to_rep1
                                                                    (get1
                                                                    xl3
                                                                    a)) 
                                                                    (to_rep
                                                                    (get x a)))))
                                                                    true
                                                                    false))
                                            (and
                                              (= kqtunused1 (int__refqtmk k1))
                                              (and
                                                (forall ((a Int))
                                                  (=>
                                                    (and (<= 0 a) (<= a k1))
                                                    (= (to_rep1 (get1 xl2 a)) 
                                                    (to_rep
                                                      (get x a)))))
                                                (and
                                                  (= (and (ite (and
                                                                 (has_bounds1
                                                                   xl2
                                                                   0
                                                                   63)
                                                                 (forall 
                                                                   ((temp___2299 Int))
                                                                   (=>
                                                                    (and
                                                                    (<= 0 temp___2299)
                                                                    (<= temp___2299 63))
                                                                    (=>
                                                                    (or
                                                                    (< 63 temp___2299)
                                                                    (or
                                                                    (< temp___2299 0)
                                                                    (< 
                                                                    k1 temp___2299)))
                                                                    (= 
                                                                    (get1
                                                                    xl2
                                                                    temp___2299) 
                                                                    (get1
                                                                    xl1
                                                                    temp___2299))))))
                                                            true
                                                            false) (ite 
                                                                    (and
                                                                    (<= 0 
                                                                    k1)
                                                                    (<= 
                                                                    k1 63))
                                                                    true
                                                                    false)) true)
                                                  (and
                                                    (= int__contentqtresultqtunused4 
                                                    k1)
                                                    (and
                                                      (= infix_eqqtresultqtunused 
                                                      (ite (= k1 63)
                                                        true
                                                        false))
                                                      (= k1 63))))))))))))))))))))))))))
    (= xl2 xl1)))

(declare-const k2 Int)

;; "H"
(assert (<= 0 k2))

;; "H"
(assert (<= k2 63))

;; Goal "def'vc"
;; File "sparknacl-sign.adb", line 278, characters 0-0
(assert
  (not (= (to_rep1 (get1 xl2 k2)) (to_rep (get x k2)))))

(check-sat)
